40
    37    37    64     2    96    82    96     1    49    37    47    47    39    29    12    34    38    40    62    58    45     5    51    17    89    13     6    13    25     4    36    52    37    72    26    42    38    66    40    94
     2     7     2     5     7     7     9     3     7     1     2     3     9     7     7     5    10     1    10     7     7     3     2    10     4     1     8     4     2     7     6     3     2    10     7     9     4     6     5     7
   846   751  1016   643   363  1089   392  1154  1120   512   995   509  1025   290   627   731   328   302   831   616   521   763  1016   216   727   431  1126   820   624   347   793   391   841  1044  1005   572   873   243   232  1130
